26
adamantane C10H16, diamond-lattice experimental geometry, C-C 1.540 A C-H 1.099 A; BORING-CAGE control for CAS(46,32)
C      0.88911941     0.88911941     0.88911941
C      0.88911941     2.66735824     2.66735824
C      2.66735824     0.88911941     2.66735824
C      2.66735824     2.66735824     0.88911941
C      0.00000000     1.77823883     1.77823883
C      1.77823883     0.00000000     1.77823883
C      1.77823883     1.77823883     0.00000000
C      1.77823883     1.77823883     3.55647766
C      1.77823883     3.55647766     1.77823883
C      3.55647766     1.77823883     1.77823883
H      0.25461147     0.25461147     0.25461147
H      0.25461147     3.30186619     3.30186619
H      3.30186619     0.25461147     3.30186619
H      3.30186619     3.30186619     0.25461147
H     -0.65755874     1.15557620     2.40090146
H     -0.65755874     2.40090146     1.15557620
H      2.40090146    -0.65755874     1.15557620
H      1.15557620    -0.65755874     2.40090146
H      1.15557620     2.40090146    -0.65755874
H      2.40090146     1.15557620    -0.65755874
H      1.15557620     1.15557620     4.21403639
H      2.40090146     2.40090146     4.21403639
H      2.40090146     4.21403639     2.40090146
H      1.15557620     4.21403639     1.15557620
H      4.21403639     1.15557620     1.15557620
H      4.21403639     2.40090146     2.40090146
