89
n-alkane C29H60 all-anti, experimental internals; boring size-ladder member
C      0.00000000     0.00000000     0.00000000
C      1.27888706     0.84167029     0.00000000
C      2.55777412     0.00000000     0.00000000
C      3.83666118     0.84167029     0.00000000
C      5.11554825     0.00000000     0.00000000
C      6.39443531     0.84167029     0.00000000
C      7.67332237     0.00000000     0.00000000
C      8.95220943     0.84167029     0.00000000
C     10.23109649     0.00000000     0.00000000
C     11.50998355     0.84167029     0.00000000
C     12.78887061     0.00000000     0.00000000
C     14.06775768     0.84167029     0.00000000
C     15.34664474     0.00000000     0.00000000
C     16.62553180     0.84167029     0.00000000
C     17.90441886     0.00000000     0.00000000
C     19.18330592     0.84167029     0.00000000
C     20.46219298     0.00000000     0.00000000
C     21.74108004     0.84167029     0.00000000
C     23.01996711     0.00000000     0.00000000
C     24.29885417     0.84167029     0.00000000
C     25.57774123     0.00000000     0.00000000
C     26.85662829     0.84167029     0.00000000
C     28.13551535     0.00000000     0.00000000
C     29.41440241     0.84167029     0.00000000
C     30.69328947     0.00000000     0.00000000
C     31.97217654     0.84167029     0.00000000
C     33.25106360     0.00000000     0.00000000
C     34.52995066     0.84167029     0.00000000
C     35.80883772     0.00000000     0.00000000
H     -0.89060133     0.63878421     0.00000000
H     -0.04683856    -0.64328229     0.88612078
H     -0.04683856    -0.64328229    -0.88612078
H      1.27888706     1.49743406     0.87817418
H      1.27888706     1.49743406    -0.87817418
H      2.55777412    -0.65576376    -0.87817418
H      2.55777412    -0.65576376     0.87817418
H      3.83666118     1.49743406     0.87817418
H      3.83666118     1.49743406    -0.87817418
H      5.11554825    -0.65576376    -0.87817418
H      5.11554825    -0.65576376     0.87817418
H      6.39443531     1.49743406     0.87817418
H      6.39443531     1.49743406    -0.87817418
H      7.67332237    -0.65576376    -0.87817418
H      7.67332237    -0.65576376     0.87817418
H      8.95220943     1.49743406     0.87817418
H      8.95220943     1.49743406    -0.87817418
H     10.23109649    -0.65576376    -0.87817418
H     10.23109649    -0.65576376     0.87817418
H     11.50998355     1.49743406     0.87817418
H     11.50998355     1.49743406    -0.87817418
H     12.78887061    -0.65576376    -0.87817418
H     12.78887061    -0.65576376     0.87817418
H     14.06775768     1.49743406     0.87817418
H     14.06775768     1.49743406    -0.87817418
H     15.34664474    -0.65576376    -0.87817418
H     15.34664474    -0.65576376     0.87817418
H     16.62553180     1.49743406     0.87817418
H     16.62553180     1.49743406    -0.87817418
H     17.90441886    -0.65576376    -0.87817418
H     17.90441886    -0.65576376     0.87817418
H     19.18330592     1.49743406     0.87817418
H     19.18330592     1.49743406    -0.87817418
H     20.46219298    -0.65576376    -0.87817418
H     20.46219298    -0.65576376     0.87817418
H     21.74108004     1.49743406     0.87817418
H     21.74108004     1.49743406    -0.87817418
H     23.01996711    -0.65576376    -0.87817418
H     23.01996711    -0.65576376     0.87817418
H     24.29885417     1.49743406     0.87817418
H     24.29885417     1.49743406    -0.87817418
H     25.57774123    -0.65576376    -0.87817418
H     25.57774123    -0.65576376     0.87817418
H     26.85662829     1.49743406     0.87817418
H     26.85662829     1.49743406    -0.87817418
H     28.13551535    -0.65576376    -0.87817418
H     28.13551535    -0.65576376     0.87817418
H     29.41440241     1.49743406     0.87817418
H     29.41440241     1.49743406    -0.87817418
H     30.69328947    -0.65576376    -0.87817418
H     30.69328947    -0.65576376     0.87817418
H     31.97217654     1.49743406     0.87817418
H     31.97217654     1.49743406    -0.87817418
H     33.25106360    -0.65576376    -0.87817418
H     33.25106360    -0.65576376     0.87817418
H     34.52995066     1.49743406     0.87817418
H     34.52995066     1.49743406    -0.87817418
H     36.69943905     0.63878421     0.00000000
H     35.85567628    -0.64328229    -0.88612078
H     35.85567628    -0.64328229     0.88612078
