50
n-alkane C16H34 all-anti, experimental internals; boring size-ladder member
C      0.00000000     0.00000000     0.00000000
C      1.27888706     0.84167029     0.00000000
C      2.55777412     0.00000000     0.00000000
C      3.83666118     0.84167029     0.00000000
C      5.11554825     0.00000000     0.00000000
C      6.39443531     0.84167029     0.00000000
C      7.67332237     0.00000000     0.00000000
C      8.95220943     0.84167029     0.00000000
C     10.23109649     0.00000000     0.00000000
C     11.50998355     0.84167029     0.00000000
C     12.78887061     0.00000000     0.00000000
C     14.06775768     0.84167029     0.00000000
C     15.34664474     0.00000000     0.00000000
C     16.62553180     0.84167029     0.00000000
C     17.90441886     0.00000000     0.00000000
C     19.18330592     0.84167029     0.00000000
H     -0.89060133     0.63878421     0.00000000
H     -0.04683856    -0.64328229     0.88612078
H     -0.04683856    -0.64328229    -0.88612078
H      1.27888706     1.49743406     0.87817418
H      1.27888706     1.49743406    -0.87817418
H      2.55777412    -0.65576376    -0.87817418
H      2.55777412    -0.65576376     0.87817418
H      3.83666118     1.49743406     0.87817418
H      3.83666118     1.49743406    -0.87817418
H      5.11554825    -0.65576376    -0.87817418
H      5.11554825    -0.65576376     0.87817418
H      6.39443531     1.49743406     0.87817418
H      6.39443531     1.49743406    -0.87817418
H      7.67332237    -0.65576376    -0.87817418
H      7.67332237    -0.65576376     0.87817418
H      8.95220943     1.49743406     0.87817418
H      8.95220943     1.49743406    -0.87817418
H     10.23109649    -0.65576376    -0.87817418
H     10.23109649    -0.65576376     0.87817418
H     11.50998355     1.49743406     0.87817418
H     11.50998355     1.49743406    -0.87817418
H     12.78887061    -0.65576376    -0.87817418
H     12.78887061    -0.65576376     0.87817418
H     14.06775768     1.49743406     0.87817418
H     14.06775768     1.49743406    -0.87817418
H     15.34664474    -0.65576376    -0.87817418
H     15.34664474    -0.65576376     0.87817418
H     16.62553180     1.49743406     0.87817418
H     16.62553180     1.49743406    -0.87817418
H     17.90441886    -0.65576376    -0.87817418
H     17.90441886    -0.65576376     0.87817418
H     20.07390725     0.20288608     0.00000000
H     19.23014448     1.48495258     0.88612078
H     19.23014448     1.48495258    -0.88612078
