170
n-alkane C56H114 all-anti, experimental internals; boring size-ladder member
C      0.00000000     0.00000000     0.00000000
C      1.27888706     0.84167029     0.00000000
C      2.55777412     0.00000000     0.00000000
C      3.83666118     0.84167029     0.00000000
C      5.11554825     0.00000000     0.00000000
C      6.39443531     0.84167029     0.00000000
C      7.67332237     0.00000000     0.00000000
C      8.95220943     0.84167029     0.00000000
C     10.23109649     0.00000000     0.00000000
C     11.50998355     0.84167029     0.00000000
C     12.78887061     0.00000000     0.00000000
C     14.06775768     0.84167029     0.00000000
C     15.34664474     0.00000000     0.00000000
C     16.62553180     0.84167029     0.00000000
C     17.90441886     0.00000000     0.00000000
C     19.18330592     0.84167029     0.00000000
C     20.46219298     0.00000000     0.00000000
C     21.74108004     0.84167029     0.00000000
C     23.01996711     0.00000000     0.00000000
C     24.29885417     0.84167029     0.00000000
C     25.57774123     0.00000000     0.00000000
C     26.85662829     0.84167029     0.00000000
C     28.13551535     0.00000000     0.00000000
C     29.41440241     0.84167029     0.00000000
C     30.69328947     0.00000000     0.00000000
C     31.97217654     0.84167029     0.00000000
C     33.25106360     0.00000000     0.00000000
C     34.52995066     0.84167029     0.00000000
C     35.80883772     0.00000000     0.00000000
C     37.08772478     0.84167029     0.00000000
C     38.36661184     0.00000000     0.00000000
C     39.64549890     0.84167029     0.00000000
C     40.92438597     0.00000000     0.00000000
C     42.20327303     0.84167029     0.00000000
C     43.48216009     0.00000000     0.00000000
C     44.76104715     0.84167029     0.00000000
C     46.03993421     0.00000000     0.00000000
C     47.31882127     0.84167029     0.00000000
C     48.59770833     0.00000000     0.00000000
C     49.87659540     0.84167029     0.00000000
C     51.15548246     0.00000000     0.00000000
C     52.43436952     0.84167029     0.00000000
C     53.71325658     0.00000000     0.00000000
C     54.99214364     0.84167029     0.00000000
C     56.27103070     0.00000000     0.00000000
C     57.54991776     0.84167029     0.00000000
C     58.82880483     0.00000000     0.00000000
C     60.10769189     0.84167029     0.00000000
C     61.38657895     0.00000000     0.00000000
C     62.66546601     0.84167029     0.00000000
C     63.94435307     0.00000000     0.00000000
C     65.22324013     0.84167029     0.00000000
C     66.50212719     0.00000000     0.00000000
C     67.78101426     0.84167029     0.00000000
C     69.05990132     0.00000000     0.00000000
C     70.33878838     0.84167029     0.00000000
H     -0.89060133     0.63878421     0.00000000
H     -0.04683856    -0.64328229     0.88612078
H     -0.04683856    -0.64328229    -0.88612078
H      1.27888706     1.49743406     0.87817418
H      1.27888706     1.49743406    -0.87817418
H      2.55777412    -0.65576376    -0.87817418
H      2.55777412    -0.65576376     0.87817418
H      3.83666118     1.49743406     0.87817418
H      3.83666118     1.49743406    -0.87817418
H      5.11554825    -0.65576376    -0.87817418
H      5.11554825    -0.65576376     0.87817418
H      6.39443531     1.49743406     0.87817418
H      6.39443531     1.49743406    -0.87817418
H      7.67332237    -0.65576376    -0.87817418
H      7.67332237    -0.65576376     0.87817418
H      8.95220943     1.49743406     0.87817418
H      8.95220943     1.49743406    -0.87817418
H     10.23109649    -0.65576376    -0.87817418
H     10.23109649    -0.65576376     0.87817418
H     11.50998355     1.49743406     0.87817418
H     11.50998355     1.49743406    -0.87817418
H     12.78887061    -0.65576376    -0.87817418
H     12.78887061    -0.65576376     0.87817418
H     14.06775768     1.49743406     0.87817418
H     14.06775768     1.49743406    -0.87817418
H     15.34664474    -0.65576376    -0.87817418
H     15.34664474    -0.65576376     0.87817418
H     16.62553180     1.49743406     0.87817418
H     16.62553180     1.49743406    -0.87817418
H     17.90441886    -0.65576376    -0.87817418
H     17.90441886    -0.65576376     0.87817418
H     19.18330592     1.49743406     0.87817418
H     19.18330592     1.49743406    -0.87817418
H     20.46219298    -0.65576376    -0.87817418
H     20.46219298    -0.65576376     0.87817418
H     21.74108004     1.49743406     0.87817418
H     21.74108004     1.49743406    -0.87817418
H     23.01996711    -0.65576376    -0.87817418
H     23.01996711    -0.65576376     0.87817418
H     24.29885417     1.49743406     0.87817418
H     24.29885417     1.49743406    -0.87817418
H     25.57774123    -0.65576376    -0.87817418
H     25.57774123    -0.65576376     0.87817418
H     26.85662829     1.49743406     0.87817418
H     26.85662829     1.49743406    -0.87817418
H     28.13551535    -0.65576376    -0.87817418
H     28.13551535    -0.65576376     0.87817418
H     29.41440241     1.49743406     0.87817418
H     29.41440241     1.49743406    -0.87817418
H     30.69328947    -0.65576376    -0.87817418
H     30.69328947    -0.65576376     0.87817418
H     31.97217654     1.49743406     0.87817418
H     31.97217654     1.49743406    -0.87817418
H     33.25106360    -0.65576376    -0.87817418
H     33.25106360    -0.65576376     0.87817418
H     34.52995066     1.49743406     0.87817418
H     34.52995066     1.49743406    -0.87817418
H     35.80883772    -0.65576376    -0.87817418
H     35.80883772    -0.65576376     0.87817418
H     37.08772478     1.49743406     0.87817418
H     37.08772478     1.49743406    -0.87817418
H     38.36661184    -0.65576376    -0.87817418
H     38.36661184    -0.65576376     0.87817418
H     39.64549890     1.49743406     0.87817418
H     39.64549890     1.49743406    -0.87817418
H     40.92438597    -0.65576376    -0.87817418
H     40.92438597    -0.65576376     0.87817418
H     42.20327303     1.49743406     0.87817418
H     42.20327303     1.49743406    -0.87817418
H     43.48216009    -0.65576376    -0.87817418
H     43.48216009    -0.65576376     0.87817418
H     44.76104715     1.49743406     0.87817418
H     44.76104715     1.49743406    -0.87817418
H     46.03993421    -0.65576376    -0.87817418
H     46.03993421    -0.65576376     0.87817418
H     47.31882127     1.49743406     0.87817418
H     47.31882127     1.49743406    -0.87817418
H     48.59770833    -0.65576376    -0.87817418
H     48.59770833    -0.65576376     0.87817418
H     49.87659540     1.49743406     0.87817418
H     49.87659540     1.49743406    -0.87817418
H     51.15548246    -0.65576376    -0.87817418
H     51.15548246    -0.65576376     0.87817418
H     52.43436952     1.49743406     0.87817418
H     52.43436952     1.49743406    -0.87817418
H     53.71325658    -0.65576376    -0.87817418
H     53.71325658    -0.65576376     0.87817418
H     54.99214364     1.49743406     0.87817418
H     54.99214364     1.49743406    -0.87817418
H     56.27103070    -0.65576376    -0.87817418
H     56.27103070    -0.65576376     0.87817418
H     57.54991776     1.49743406     0.87817418
H     57.54991776     1.49743406    -0.87817418
H     58.82880483    -0.65576376    -0.87817418
H     58.82880483    -0.65576376     0.87817418
H     60.10769189     1.49743406     0.87817418
H     60.10769189     1.49743406    -0.87817418
H     61.38657895    -0.65576376    -0.87817418
H     61.38657895    -0.65576376     0.87817418
H     62.66546601     1.49743406     0.87817418
H     62.66546601     1.49743406    -0.87817418
H     63.94435307    -0.65576376    -0.87817418
H     63.94435307    -0.65576376     0.87817418
H     65.22324013     1.49743406     0.87817418
H     65.22324013     1.49743406    -0.87817418
H     66.50212719    -0.65576376    -0.87817418
H     66.50212719    -0.65576376     0.87817418
H     67.78101426     1.49743406     0.87817418
H     67.78101426     1.49743406    -0.87817418
H     69.05990132    -0.65576376    -0.87817418
H     69.05990132    -0.65576376     0.87817418
H     71.22938971     0.20288608     0.00000000
H     70.38562694     1.48495258     0.88612078
H     70.38562694     1.48495258    -0.88612078
